100 3 100
10 13 62 91 98 31 34 88 85 22 19 14 58 44 78 89 2 75 97 91 69 66 35 56 69 58 25 41 55 20 65 86 14 8 84 45 43 72 31 17 91 97 27 36 27 16 90 54 14 33 24 32 20 32 1 79 57 94 34 30 46 52 16 61 12 52 58 7 25 41 25 68 38 52 4 66 21 47 20 87 80 96 71 1 28 72 80 38 18 66 20 64 70 88 25 35 40 84 42 17 
